6 100 370
0 14 68
1 73 2 8 66
2 13 47 24 75
3 37 44 9 68
4 34 63 19 16
5 58 98 9 35
6 33 42 18 47
7 18 98 9 46
8 24 79 14 27
9 17 28 3 27
10 72 67 14 37
11 78 63 8 5
12 42 48 8 9
13 1 2 13 79
14 2 28 18 28
15 32 82 4 73
16 97 38 24 1
17 39 53 14 46
18 87 1 8 20
19 42 77 18 76
20 83 27 13 57
21 79 92 2 10
22 22 39 9 78
23 58 32 18 59
24 53 84 3 73
25 38 37 24 36
26 63 59 8 33
27 42 88 24 31
28 32 88 14 52
29 38 23 13 39
30 63 32 24 30
31 22 73 23 38
32 88 94 9 7
33 58 78 13 24
34 43 62 14 70
35 73 1 14 14
36 17 32 18 66
37 87 79 24 76
38 12 24 4 10
39 48 53 8 50
40 48 23 13 8
41 7 37 4 59
42 98 77 14 34
43 34 12 18 40
